ampl.linux-intel64/foo_m2_basic2_v2_d1.nl
g9 3 1 0 29 20190616 0 4 0 368	# problem foo_m2_basic2_v2_d1
 132 29 1 0 22	# vars, constraints, objectives, ranges, eqns
 14 0	# nonlinear constraints, objectives
 0 0	# network constraints: nonlinear, linear
 112 0 0	# nonlinear vars in constraints, objectives, both
 0 0 0 1	# linear network variables; functions; arith, flags
 0 0 0 0 0	# discrete variables: binary, integer, nonlinear (b,c,o)
 295 112	# nonzeros in Jacobian, gradients
 0 0	# max name lengths: constraints, variables
 0 0 0 0 0	# common exprs: b,c,o,c1,o1
b
0 0 1000
0 0 1000
0 0 1000
0 0 1000
0 0 1000
0 0 1000
0 0 1000
0 0 1000
0 0 1000
0 0 1000
0 0 1000
0 0 1000
0 0 1000
0 0 1000
0 0 1000
0 0 1000
0 0 1000
0 0 1000
0 0 1000
0 0 1000
0 0 1000
0 0 1000
0 0 1000
0 0 1000
0 0 1000
0 0 1000
0 0 1000
0 0 1000
0 0 1000
0 0 1000
0 0 1000
0 0 1000
0 0 1000
0 0 1000
0 0 1000
0 0 1000
0 0 1000
0 0 1000
0 0 1000
0 0 1000
0 0 1000
0 0 1000
0 0 1000
0 0 1000
0 0 1000
0 0 1000
0 0 1000
0 0 1000
0 0 1000
0 0 1000
0 0 1000
0 0 1000
0 0 1000
0 0 1000
0 0 1000
0 0 1000
0 0 1000
0 0 1000
0 0 1000
0 0 1000
0 0 1000
0 0 1000
0 0 1000
0 0 1000
0 0 1000
0 0 1000
0 0 1000
0 0 1000
0 0 1000
0 0 1000
0 0 1000
0 0 1000
0 0 1000
0 0 1000
0 0 1000
0 0 1000
0 0 1000
0 0 1000
0 0 1000
0 0 1000
0 0 1000
0 0 1000
0 0 1000
0 0 1000
0 0 1000
0 0 1000
0 0 1000
0 0 1000
0 0 1000
0 0 1000
0 0 1000
0 0 1000
0 0 1000
0 0 1000
0 0 1000
0 0 1000
0 0 1000
0 0 1000
0 0 311.1087
0 0 311.1087
0 0 311.1087
0 0 311.1087
0 0 311.1087
0 0 311.1087
0 0 311.1087
0 0 311.1087
0 0 311.1087
0 0 311.1087
0 0 311.1087
0 0 311.1087
0 0 311.1087
0 0 311.1087
0 0 1000
0 0 1000
0 0 1000
0 0 1000
0 0 1000
0 0 1000
0 0 1000
0 0 1000
0 0 1000
0 0 1000
0 0 1000
0 0 1000
0 0 1000
0 0 1000
2 180
2 190
2 185
2 180
2 195
2 190
r
4 0
4 0
4 0
4 0
4 0
4 0
4 0
1 0
1 0
1 0
1 0
1 0
1 0
1 0
4 -283.331
4 27.777
4 33.333
4 75
4 91.666
4 55.555
4 -210
4 1000
4 1000
4 1000
4 1000
4 1000
4 1000
4 1000
4 1000
C0
o54
14
o2
n-7135.702111329911
o2
o2
n10.68
v0
o1
o5
o2
n0.001
v98
n1.852
o5
o2
n0.001
v105
n1.852
o2
n-244.01730857816503
o2
o2
n10.68
v1
o1
o5
o2
n0.001
v98
n1.852
o5
o2
n0.001
v105
n1.852
o2
n-33.87319802958245
o2
o2
n10.68
v2
o1
o5
o2
n0.001
v98
n1.852
o5
o2
n0.001
v105
n1.852
o2
n-8.344581367990129
o2
o2
n10.68
v3
o1
o5
o2
n0.001
v98
n1.852
o5
o2
n0.001
v105
n1.852
o2
n-1.1583508514165548
o2
o2
n10.68
v4
o1
o5
o2
n0.001
v98
n1.852
o5
o2
n0.001
v105
n1.852
o2
n-0.2853569634577913
o2
o2
n10.68
v5
o1
o5
o2
n0.001
v98
n1.852
o5
o2
n0.001
v105
n1.852
o2
n-0.09625797289414939
o2
o2
n10.68
v6
o1
o5
o2
n0.001
v98
n1.852
o5
o2
n0.001
v105
n1.852
o2
n-0.03961175126734846
o2
o2
n10.68
v7
o1
o5
o2
n0.001
v98
n1.852
o5
o2
n0.001
v105
n1.852
o2
n-0.018697914856732396
o2
o2
n10.68
v8
o1
o5
o2
n0.001
v98
n1.852
o5
o2
n0.001
v105
n1.852
o2
n-0.009758260241336003
o2
o2
n10.68
v9
o1
o5
o2
n0.001
v98
n1.852
o5
o2
n0.001
v105
n1.852
o2
n-0.005498694755694567
o2
o2
n10.68
v10
o1
o5
o2
n0.001
v98
n1.852
o5
o2
n0.001
v105
n1.852
o2
n-0.003291702919818584
o2
o2
n10.68
v11
o1
o5
o2
n0.001
v98
n1.852
o5
o2
n0.001
v105
n1.852
o2
n-0.002069370510925747
o2
o2
n10.68
v12
o1
o5
o2
n0.001
v98
n1.852
o5
o2
n0.001
v105
n1.852
o2
n-0.0013545903096177042
o2
o2
n10.68
v13
o1
o5
o2
n0.001
v98
n1.852
o5
o2
n0.001
v105
n1.852
C1
o54
14
o2
n-7135.702111329911
o2
o2
n10.68
v14
o1
o5
o2
n0.001
v99
n1.852
o5
o2
n0.001
v106
n1.852
o2
n-244.01730857816503
o2
o2
n10.68
v15
o1
o5
o2
n0.001
v99
n1.852
o5
o2
n0.001
v106
n1.852
o2
n-33.87319802958245
o2
o2
n10.68
v16
o1
o5
o2
n0.001
v99
n1.852
o5
o2
n0.001
v106
n1.852
o2
n-8.344581367990129
o2
o2
n10.68
v17
o1
o5
o2
n0.001
v99
n1.852
o5
o2
n0.001
v106
n1.852
o2
n-1.1583508514165548
o2
o2
n10.68
v18
o1
o5
o2
n0.001
v99
n1.852
o5
o2
n0.001
v106
n1.852
o2
n-0.2853569634577913
o2
o2
n10.68
v19
o1
o5
o2
n0.001
v99
n1.852
o5
o2
n0.001
v106
n1.852
o2
n-0.09625797289414939
o2
o2
n10.68
v20
o1
o5
o2
n0.001
v99
n1.852
o5
o2
n0.001
v106
n1.852
o2
n-0.03961175126734846
o2
o2
n10.68
v21
o1
o5
o2
n0.001
v99
n1.852
o5
o2
n0.001
v106
n1.852
o2
n-0.018697914856732396
o2
o2
n10.68
v22
o1
o5
o2
n0.001
v99
n1.852
o5
o2
n0.001
v106
n1.852
o2
n-0.009758260241336003
o2
o2
n10.68
v23
o1
o5
o2
n0.001
v99
n1.852
o5
o2
n0.001
v106
n1.852
o2
n-0.005498694755694567
o2
o2
n10.68
v24
o1
o5
o2
n0.001
v99
n1.852
o5
o2
n0.001
v106
n1.852
o2
n-0.003291702919818584
o2
o2
n10.68
v25
o1
o5
o2
n0.001
v99
n1.852
o5
o2
n0.001
v106
n1.852
o2
n-0.002069370510925747
o2
o2
n10.68
v26
o1
o5
o2
n0.001
v99
n1.852
o5
o2
n0.001
v106
n1.852
o2
n-0.0013545903096177042
o2
o2
n10.68
v27
o1
o5
o2
n0.001
v99
n1.852
o5
o2
n0.001
v106
n1.852
C2
o54
14
o2
n-7135.702111329911
o2
o2
n10.68
v28
o1
o5
o2
n0.001
v100
n1.852
o5
o2
n0.001
v107
n1.852
o2
n-244.01730857816503
o2
o2
n10.68
v29
o1
o5
o2
n0.001
v100
n1.852
o5
o2
n0.001
v107
n1.852
o2
n-33.87319802958245
o2
o2
n10.68
v30
o1
o5
o2
n0.001
v100
n1.852
o5
o2
n0.001
v107
n1.852
o2
n-8.344581367990129
o2
o2
n10.68
v31
o1
o5
o2
n0.001
v100
n1.852
o5
o2
n0.001
v107
n1.852
o2
n-1.1583508514165548
o2
o2
n10.68
v32
o1
o5
o2
n0.001
v100
n1.852
o5
o2
n0.001
v107
n1.852
o2
n-0.2853569634577913
o2
o2
n10.68
v33
o1
o5
o2
n0.001
v100
n1.852
o5
o2
n0.001
v107
n1.852
o2
n-0.09625797289414939
o2
o2
n10.68
v34
o1
o5
o2
n0.001
v100
n1.852
o5
o2
n0.001
v107
n1.852
o2
n-0.03961175126734846
o2
o2
n10.68
v35
o1
o5
o2
n0.001
v100
n1.852
o5
o2
n0.001
v107
n1.852
o2
n-0.018697914856732396
o2
o2
n10.68
v36
o1
o5
o2
n0.001
v100
n1.852
o5
o2
n0.001
v107
n1.852
o2
n-0.009758260241336003
o2
o2
n10.68
v37
o1
o5
o2
n0.001
v100
n1.852
o5
o2
n0.001
v107
n1.852
o2
n-0.005498694755694567
o2
o2
n10.68
v38
o1
o5
o2
n0.001
v100
n1.852
o5
o2
n0.001
v107
n1.852
o2
n-0.003291702919818584
o2
o2
n10.68
v39
o1
o5
o2
n0.001
v100
n1.852
o5
o2
n0.001
v107
n1.852
o2
n-0.002069370510925747
o2
o2
n10.68
v40
o1
o5
o2
n0.001
v100
n1.852
o5
o2
n0.001
v107
n1.852
o2
n-0.0013545903096177042
o2
o2
n10.68
v41
o1
o5
o2
n0.001
v100
n1.852
o5
o2
n0.001
v107
n1.852
C3
o54
14
o2
n-7135.702111329911
o2
o2
n10.68
v42
o1
o5
o2
n0.001
v101
n1.852
o5
o2
n0.001
v108
n1.852
o2
n-244.01730857816503
o2
o2
n10.68
v43
o1
o5
o2
n0.001
v101
n1.852
o5
o2
n0.001
v108
n1.852
o2
n-33.87319802958245
o2
o2
n10.68
v44
o1
o5
o2
n0.001
v101
n1.852
o5
o2
n0.001
v108
n1.852
o2
n-8.344581367990129
o2
o2
n10.68
v45
o1
o5
o2
n0.001
v101
n1.852
o5
o2
n0.001
v108
n1.852
o2
n-1.1583508514165548
o2
o2
n10.68
v46
o1
o5
o2
n0.001
v101
n1.852
o5
o2
n0.001
v108
n1.852
o2
n-0.2853569634577913
o2
o2
n10.68
v47
o1
o5
o2
n0.001
v101
n1.852
o5
o2
n0.001
v108
n1.852
o2
n-0.09625797289414939
o2
o2
n10.68
v48
o1
o5
o2
n0.001
v101
n1.852
o5
o2
n0.001
v108
n1.852
o2
n-0.03961175126734846
o2
o2
n10.68
v49
o1
o5
o2
n0.001
v101
n1.852
o5
o2
n0.001
v108
n1.852
o2
n-0.018697914856732396
o2
o2
n10.68
v50
o1
o5
o2
n0.001
v101
n1.852
o5
o2
n0.001
v108
n1.852
o2
n-0.009758260241336003
o2
o2
n10.68
v51
o1
o5
o2
n0.001
v101
n1.852
o5
o2
n0.001
v108
n1.852
o2
n-0.005498694755694567
o2
o2
n10.68
v52
o1
o5
o2
n0.001
v101
n1.852
o5
o2
n0.001
v108
n1.852
o2
n-0.003291702919818584
o2
o2
n10.68
v53
o1
o5
o2
n0.001
v101
n1.852
o5
o2
n0.001
v108
n1.852
o2
n-0.002069370510925747
o2
o2
n10.68
v54
o1
o5
o2
n0.001
v101
n1.852
o5
o2
n0.001
v108
n1.852
o2
n-0.0013545903096177042
o2
o2
n10.68
v55
o1
o5
o2
n0.001
v101
n1.852
o5
o2
n0.001
v108
n1.852
C4
o54
14
o2
n-7135.702111329911
o2
o2
n10.68
v56
o1
o5
o2
n0.001
v102
n1.852
o5
o2
n0.001
v109
n1.852
o2
n-244.01730857816503
o2
o2
n10.68
v57
o1
o5
o2
n0.001
v102
n1.852
o5
o2
n0.001
v109
n1.852
o2
n-33.87319802958245
o2
o2
n10.68
v58
o1
o5
o2
n0.001
v102
n1.852
o5
o2
n0.001
v109
n1.852
o2
n-8.344581367990129
o2
o2
n10.68
v59
o1
o5
o2
n0.001
v102
n1.852
o5
o2
n0.001
v109
n1.852
o2
n-1.1583508514165548
o2
o2
n10.68
v60
o1
o5
o2
n0.001
v102
n1.852
o5
o2
n0.001
v109
n1.852
o2
n-0.2853569634577913
o2
o2
n10.68
v61
o1
o5
o2
n0.001
v102
n1.852
o5
o2
n0.001
v109
n1.852
o2
n-0.09625797289414939
o2
o2
n10.68
v62
o1
o5
o2
n0.001
v102
n1.852
o5
o2
n0.001
v109
n1.852
o2
n-0.03961175126734846
o2
o2
n10.68
v63
o1
o5
o2
n0.001
v102
n1.852
o5
o2
n0.001
v109
n1.852
o2
n-0.018697914856732396
o2
o2
n10.68
v64
o1
o5
o2
n0.001
v102
n1.852
o5
o2
n0.001
v109
n1.852
o2
n-0.009758260241336003
o2
o2
n10.68
v65
o1
o5
o2
n0.001
v102
n1.852
o5
o2
n0.001
v109
n1.852
o2
n-0.005498694755694567
o2
o2
n10.68
v66
o1
o5
o2
n0.001
v102
n1.852
o5
o2
n0.001
v109
n1.852
o2
n-0.003291702919818584
o2
o2
n10.68
v67
o1
o5
o2
n0.001
v102
n1.852
o5
o2
n0.001
v109
n1.852
o2
n-0.002069370510925747
o2
o2
n10.68
v68
o1
o5
o2
n0.001
v102
n1.852
o5
o2
n0.001
v109
n1.852
o2
n-0.0013545903096177042
o2
o2
n10.68
v69
o1
o5
o2
n0.001
v102
n1.852
o5
o2
n0.001
v109
n1.852
C5
o54
14
o2
n-7135.702111329911
o2
o2
n10.68
v70
o1
o5
o2
n0.001
v103
n1.852
o5
o2
n0.001
v110
n1.852
o2
n-244.01730857816503
o2
o2
n10.68
v71
o1
o5
o2
n0.001
v103
n1.852
o5
o2
n0.001
v110
n1.852
o2
n-33.87319802958245
o2
o2
n10.68
v72
o1
o5
o2
n0.001
v103
n1.852
o5
o2
n0.001
v110
n1.852
o2
n-8.344581367990129
o2
o2
n10.68
v73
o1
o5
o2
n0.001
v103
n1.852
o5
o2
n0.001
v110
n1.852
o2
n-1.1583508514165548
o2
o2
n10.68
v74
o1
o5
o2
n0.001
v103
n1.852
o5
o2
n0.001
v110
n1.852
o2
n-0.2853569634577913
o2
o2
n10.68
v75
o1
o5
o2
n0.001
v103
n1.852
o5
o2
n0.001
v110
n1.852
o2
n-0.09625797289414939
o2
o2
n10.68
v76
o1
o5
o2
n0.001
v103
n1.852
o5
o2
n0.001
v110
n1.852
o2
n-0.03961175126734846
o2
o2
n10.68
v77
o1
o5
o2
n0.001
v103
n1.852
o5
o2
n0.001
v110
n1.852
o2
n-0.018697914856732396
o2
o2
n10.68
v78
o1
o5
o2
n0.001
v103
n1.852
o5
o2
n0.001
v110
n1.852
o2
n-0.009758260241336003
o2
o2
n10.68
v79
o1
o5
o2
n0.001
v103
n1.852
o5
o2
n0.001
v110
n1.852
o2
n-0.005498694755694567
o2
o2
n10.68
v80
o1
o5
o2
n0.001
v103
n1.852
o5
o2
n0.001
v110
n1.852
o2
n-0.003291702919818584
o2
o2
n10.68
v81
o1
o5
o2
n0.001
v103
n1.852
o5
o2
n0.001
v110
n1.852
o2
n-0.002069370510925747
o2
o2
n10.68
v82
o1
o5
o2
n0.001
v103
n1.852
o5
o2
n0.001
v110
n1.852
o2
n-0.0013545903096177042
o2
o2
n10.68
v83
o1
o5
o2
n0.001
v103
n1.852
o5
o2
n0.001
v110
n1.852
C6
o54
14
o2
n-7135.702111329911
o2
o2
n10.68
v84
o1
o5
o2
n0.001
v104
n1.852
o5
o2
n0.001
v111
n1.852
o2
n-244.01730857816503
o2
o2
n10.68
v85
o1
o5
o2
n0.001
v104
n1.852
o5
o2
n0.001
v111
n1.852
o2
n-33.87319802958245
o2
o2
n10.68
v86
o1
o5
o2
n0.001
v104
n1.852
o5
o2
n0.001
v111
n1.852
o2
n-8.344581367990129
o2
o2
n10.68
v87
o1
o5
o2
n0.001
v104
n1.852
o5
o2
n0.001
v111
n1.852
o2
n-1.1583508514165548
o2
o2
n10.68
v88
o1
o5
o2
n0.001
v104
n1.852
o5
o2
n0.001
v111
n1.852
o2
n-0.2853569634577913
o2
o2
n10.68
v89
o1
o5
o2
n0.001
v104
n1.852
o5
o2
n0.001
v111
n1.852
o2
n-0.09625797289414939
o2
o2
n10.68
v90
o1
o5
o2
n0.001
v104
n1.852
o5
o2
n0.001
v111
n1.852
o2
n-0.03961175126734846
o2
o2
n10.68
v91
o1
o5
o2
n0.001
v104
n1.852
o5
o2
n0.001
v111
n1.852
o2
n-0.018697914856732396
o2
o2
n10.68
v92
o1
o5
o2
n0.001
v104
n1.852
o5
o2
n0.001
v111
n1.852
o2
n-0.009758260241336003
o2
o2
n10.68
v93
o1
o5
o2
n0.001
v104
n1.852
o5
o2
n0.001
v111
n1.852
o2
n-0.005498694755694567
o2
o2
n10.68
v94
o1
o5
o2
n0.001
v104
n1.852
o5
o2
n0.001
v111
n1.852
o2
n-0.003291702919818584
o2
o2
n10.68
v95
o1
o5
o2
n0.001
v104
n1.852
o5
o2
n0.001
v111
n1.852
o2
n-0.002069370510925747
o2
o2
n10.68
v96
o1
o5
o2
n0.001
v104
n1.852
o5
o2
n0.001
v111
n1.852
o2
n-0.0013545903096177042
o2
o2
n10.68
v97
o1
o5
o2
n0.001
v104
n1.852
o5
o2
n0.001
v111
n1.852
C7
o2
v98
v105
C8
o2
v99
v106
C9
o2
v100
v107
C10
o2
v101
v108
C11
o2
v102
v109
C12
o2
v103
v110
C13
o2
v104
v111
C14
n0
C15
n0
C16
n0
C17
n0
C18
n0
C19
n0
C20
n0
C21
n0
C22
n0
C23
n0
C24
n0
C25
n0
C26
n0
C27
n0
C28
n0
O0 0
n0
k131
2
4
6
8
10
12
14
16
18
20
22
24
26
28
30
32
34
36
38
40
42
44
46
48
50
52
54
56
58
60
62
64
66
68
70
72
74
76
78
80
82
84
86
88
90
92
94
96
98
100
102
104
106
108
110
112
114
116
118
120
122
124
126
128
130
132
134
136
138
140
142
144
146
148
150
152
154
156
158
160
162
164
166
168
170
172
174
176
178
180
182
184
186
188
190
192
194
196
200
204
208
212
216
220
224
228
232
236
240
244
248
252
254
256
258
260
262
264
266
268
270
272
274
276
278
280
283
285
288
291
293
J0 18
0 0
1 0
2 0
3 0
4 0
5 0
6 0
7 0
8 0
9 0
10 0
11 0
12 0
13 0
98 0
105 0
126 1
128 -1
J1 18
14 0
15 0
16 0
17 0
18 0
19 0
20 0
21 0
22 0
23 0
24 0
25 0
26 0
27 0
99 0
106 0
126 1
127 -1
J2 18
28 0
29 0
30 0
31 0
32 0
33 0
34 0
35 0
36 0
37 0
38 0
39 0
40 0
41 0
100 0
107 0
127 1
129 -1
J3 18
42 0
43 0
44 0
45 0
46 0
47 0
48 0
49 0
50 0
51 0
52 0
53 0
54 0
55 0
101 0
108 0
128 1
129 -1
J4 18
56 0
57 0
58 0
59 0
60 0
61 0
62 0
63 0
64 0
65 0
66 0
67 0
68 0
69 0
102 0
109 0
128 1
130 -1
J5 18
70 0
71 0
72 0
73 0
74 0
75 0
76 0
77 0
78 0
79 0
80 0
81 0
82 0
83 0
103 0
110 0
129 -1
131 1
J6 18
84 0
85 0
86 0
87 0
88 0
89 0
90 0
91 0
92 0
93 0
94 0
95 0
96 0
97 0
104 0
111 0
130 1
131 -1
J7 2
98 0
105 0
J8 2
99 0
106 0
J9 2
100 0
107 0
J10 2
101 0
108 0
J11 2
102 0
109 0
J12 2
103 0
110 0
J13 2
104 0
111 0
J14 4
98 -1
99 -1
105 1
106 1
J15 4
99 1
100 -1
106 -1
107 1
J16 6
98 1
101 -1
102 -1
105 -1
108 1
109 1
J17 6
100 1
101 1
103 1
107 -1
108 -1
110 -1
J18 4
102 1
104 -1
109 -1
111 1
J19 4
103 -1
104 1
110 1
111 -1
J20 15
112 -8767.61109154759
113 -299.8231747682601
114 -41.61987455709587
115 -10.252956613778275
116 -1.4232614554716283
117 -0.3506170575549127
118 -0.11827181931496583
119 -0.04867081393655611
120 -0.022974059613055507
121 -0.0119899386761536
122 -0.006756226139613481
123 -0.004044503341031731
124 -0.0025426279798460667
125 -0.0016643801601877114
126 -1
J21 14
112 1
113 1
114 1
115 1
116 1
117 1
118 1
119 1
120 1
121 1
122 1
123 1
124 1
125 1
J22 14
0 1
1 1
2 1
3 1
4 1
5 1
6 1
7 1
8 1
9 1
10 1
11 1
12 1
13 1
J23 14
14 1
15 1
16 1
17 1
18 1
19 1
20 1
21 1
22 1
23 1
24 1
25 1
26 1
27 1
J24 14
28 1
29 1
30 1
31 1
32 1
33 1
34 1
35 1
36 1
37 1
38 1
39 1
40 1
41 1
J25 14
42 1
43 1
44 1
45 1
46 1
47 1
48 1
49 1
50 1
51 1
52 1
53 1
54 1
55 1
J26 14
56 1
57 1
58 1
59 1
60 1
61 1
62 1
63 1
64 1
65 1
66 1
67 1
68 1
69 1
J27 14
70 1
71 1
72 1
73 1
74 1
75 1
76 1
77 1
78 1
79 1
80 1
81 1
82 1
83 1
J28 14
84 1
85 1
86 1
87 1
88 1
89 1
90 1
91 1
92 1
93 1
94 1
95 1
96 1
97 1
G0 112
0 2
1 5
2 8
3 11
4 16
5 23
6 32
7 50
8 60
9 90
10 130
11 170
12 300
13 550
14 2
15 5
16 8
17 11
18 16
19 23
20 32
21 50
22 60
23 90
24 130
25 170
26 300
27 550
28 2
29 5
30 8
31 11
32 16
33 23
34 32
35 50
36 60
37 90
38 130
39 170
40 300
41 550
42 2
43 5
44 8
45 11
46 16
47 23
48 32
49 50
50 60
51 90
52 130
53 170
54 300
55 550
56 2
57 5
58 8
59 11
60 16
61 23
62 32
63 50
64 60
65 90
66 130
67 170
68 300
69 550
70 2
71 5
72 8
73 11
74 16
75 23
76 32
77 50
78 60
79 90
80 130
81 170
82 300
83 550
84 2
85 5
86 8
87 11
88 16
89 23
90 32
91 50
92 60
93 90
94 130
95 170
96 300
97 550
112 2
113 5
114 8
115 11
116 16
117 23
118 32
119 50
120 60
121 90
122 130
123 170
124 300
125 550
