ampl.linux-intel64/foo_m2_basic2_v2_d1.sol
 

Options
9
3
1
0
29
20190616
0
4
0
368
29
0
132
0
objno 0 200
